sat
(:max-memory         18.62
 :memory             18.42
 :nlsat-arith-var    3
 :nlsat-atoms        12
 :nlsat-bool-var     1
 :nlsat-clauses      10
 :nlsat-conflicts    1
 :nlsat-propagations 16
 :nlsat-stages       5
 :num-allocs         91003
 :rlimit-count       21973
 :time               0.02
 :total-time         0.03)
